
  12    4
  10   10   10   10

   0   0   0   0   0   3 2 3 4 
   4  10  10  10  10   2 9 5 
  10  10  10  10  10   2 9 5 
  10  10  10  10  10   2 9 7 
   8  10  10  10  10   1 6 
   2  10  10  10  10   1 7 
   6  10  10  10  10   1 8 
   4  10  10  10  10   1 10 
   7  10  10  10  10   1 10 
   2  10  10  10  10   1 11 
   2  10  10  10  10   1 12
   0   0   0   0   0   0 
